% Generated by MiniZinc 2.9.3
% Solver library: /home/void/Workspace-Research/Code/fzn-minicpp/minizinc
% Command line invocation: minizinc --solver org.minicpp.ml --compile --no-output-ozn rcpsp-sat.mzn dzn/J60_18_1.dzn -D makespan=81 -o fzn-sat/J60_18_1.fzn 

predicate int_lin_le_imp(array [int] of int: as,array [int] of var int: bs,int: c,var bool: r);
predicate minicpp_cumulative(array [int] of var int: s,array [int] of var int: d,array [int] of var int: r,var int: b);
array [1..2] of int: X_INTRODUCED_78_ = [1,-1];
array [1..17] of int: X_INTRODUCED_220_ = [1,8,5,2,4,9,7,3,2,2,9,1,8,9,7,5,9];
array [1..17] of int: X_INTRODUCED_221_ = [6,3,1,7,1,2,3,3,9,4,4,8,4,10,10,8,3];
array [1..12] of int: X_INTRODUCED_223_ = [4,1,6,1,3,9,5,8,3,2,10,4];
array [1..12] of int: X_INTRODUCED_224_ = [8,7,3,1,7,1,6,2,4,7,9,9];
array [1..16] of int: X_INTRODUCED_226_ = [10,7,10,3,4,10,3,7,9,3,6,6,7,7,6,8];
array [1..16] of int: X_INTRODUCED_227_ = [2,10,8,10,8,5,4,1,7,9,3,1,9,5,9,2];
array [1..15] of int: X_INTRODUCED_229_ = [8,8,6,7,1,1,2,3,6,3,9,1,7,10,2];
array [1..15] of int: X_INTRODUCED_230_ = [9,8,5,5,9,8,10,5,1,7,8,3,1,8,2];
var 0..331: X_INTRODUCED_16_;
var 0..331: X_INTRODUCED_17_;
var 0..331: X_INTRODUCED_18_;
var 0..331: X_INTRODUCED_19_;
var 0..331: X_INTRODUCED_20_;
var 0..331: X_INTRODUCED_21_;
var 0..331: X_INTRODUCED_22_;
var 0..331: X_INTRODUCED_23_;
var 0..331: X_INTRODUCED_24_;
var 0..331: X_INTRODUCED_25_;
var 0..331: X_INTRODUCED_26_;
var 0..331: X_INTRODUCED_27_;
var 0..331: X_INTRODUCED_28_;
var 0..331: X_INTRODUCED_29_;
var 0..331: X_INTRODUCED_30_;
var 0..331: X_INTRODUCED_31_;
var 0..331: X_INTRODUCED_32_;
var 0..331: X_INTRODUCED_33_;
var 0..331: X_INTRODUCED_34_;
var 0..331: X_INTRODUCED_35_;
var 0..331: X_INTRODUCED_36_;
var 0..331: X_INTRODUCED_37_;
var 0..331: X_INTRODUCED_38_;
var 0..331: X_INTRODUCED_39_;
var 0..331: X_INTRODUCED_40_;
var 0..331: X_INTRODUCED_41_;
var 0..331: X_INTRODUCED_42_;
var 0..331: X_INTRODUCED_43_;
var 0..331: X_INTRODUCED_44_;
var 0..331: X_INTRODUCED_45_;
var 0..331: X_INTRODUCED_46_;
var 0..331: X_INTRODUCED_47_;
var 0..331: X_INTRODUCED_48_;
var 0..331: X_INTRODUCED_49_;
var 0..331: X_INTRODUCED_50_;
var 0..331: X_INTRODUCED_51_;
var 0..331: X_INTRODUCED_52_;
var 0..331: X_INTRODUCED_53_;
var 0..331: X_INTRODUCED_54_;
var 0..331: X_INTRODUCED_55_;
var 0..331: X_INTRODUCED_56_;
var 0..331: X_INTRODUCED_57_;
var 0..331: X_INTRODUCED_58_;
var 0..331: X_INTRODUCED_59_;
var 0..331: X_INTRODUCED_60_;
var 0..331: X_INTRODUCED_61_;
var 0..331: X_INTRODUCED_62_;
var 0..331: X_INTRODUCED_63_;
var 0..331: X_INTRODUCED_64_;
var 0..331: X_INTRODUCED_65_;
var 0..331: X_INTRODUCED_66_;
var 0..331: X_INTRODUCED_67_;
var 0..331: X_INTRODUCED_68_;
var 0..331: X_INTRODUCED_69_;
var 0..331: X_INTRODUCED_70_;
var 0..331: X_INTRODUCED_71_;
var 0..331: X_INTRODUCED_72_;
var 0..79: X_INTRODUCED_73_;
var 0..78: X_INTRODUCED_74_;
var 0..72: X_INTRODUCED_75_;
var bool: X_INTRODUCED_135_ ::var_is_introduced :: is_defined_var;
var bool: X_INTRODUCED_136_ ::var_is_introduced :: is_defined_var;
var bool: X_INTRODUCED_137_ ::var_is_introduced :: is_defined_var;
var bool: X_INTRODUCED_138_ ::var_is_introduced :: is_defined_var;
var bool: X_INTRODUCED_139_ ::var_is_introduced :: is_defined_var;
var bool: X_INTRODUCED_140_ ::var_is_introduced :: is_defined_var;
var bool: X_INTRODUCED_141_ ::var_is_introduced :: is_defined_var;
var bool: X_INTRODUCED_142_ ::var_is_introduced :: is_defined_var;
var bool: X_INTRODUCED_143_ ::var_is_introduced :: is_defined_var;
var bool: X_INTRODUCED_144_ ::var_is_introduced :: is_defined_var;
var bool: X_INTRODUCED_145_ ::var_is_introduced :: is_defined_var;
var bool: X_INTRODUCED_146_ ::var_is_introduced :: is_defined_var;
var bool: X_INTRODUCED_147_ ::var_is_introduced :: is_defined_var;
var bool: X_INTRODUCED_148_ ::var_is_introduced :: is_defined_var;
var bool: X_INTRODUCED_149_ ::var_is_introduced :: is_defined_var;
var bool: X_INTRODUCED_151_ ::var_is_introduced :: is_defined_var;
var bool: X_INTRODUCED_152_ ::var_is_introduced :: is_defined_var;
var bool: X_INTRODUCED_153_ ::var_is_introduced :: is_defined_var;
var bool: X_INTRODUCED_154_ ::var_is_introduced :: is_defined_var;
var bool: X_INTRODUCED_155_ ::var_is_introduced :: is_defined_var;
var bool: X_INTRODUCED_156_ ::var_is_introduced :: is_defined_var;
var bool: X_INTRODUCED_157_ ::var_is_introduced :: is_defined_var;
var bool: X_INTRODUCED_158_ ::var_is_introduced :: is_defined_var;
var bool: X_INTRODUCED_159_ ::var_is_introduced :: is_defined_var;
var bool: X_INTRODUCED_160_ ::var_is_introduced :: is_defined_var;
var bool: X_INTRODUCED_161_ ::var_is_introduced :: is_defined_var;
var bool: X_INTRODUCED_162_ ::var_is_introduced :: is_defined_var;
var bool: X_INTRODUCED_163_ ::var_is_introduced :: is_defined_var;
var bool: X_INTRODUCED_164_ ::var_is_introduced :: is_defined_var;
var bool: X_INTRODUCED_165_ ::var_is_introduced :: is_defined_var;
var bool: X_INTRODUCED_166_ ::var_is_introduced :: is_defined_var;
var bool: X_INTRODUCED_167_ ::var_is_introduced :: is_defined_var;
var bool: X_INTRODUCED_168_ ::var_is_introduced :: is_defined_var;
var bool: X_INTRODUCED_169_ ::var_is_introduced :: is_defined_var;
var bool: X_INTRODUCED_170_ ::var_is_introduced :: is_defined_var;
var bool: X_INTRODUCED_171_ ::var_is_introduced :: is_defined_var;
var bool: X_INTRODUCED_172_ ::var_is_introduced :: is_defined_var;
var bool: X_INTRODUCED_173_ ::var_is_introduced :: is_defined_var;
var bool: X_INTRODUCED_174_ ::var_is_introduced :: is_defined_var;
var bool: X_INTRODUCED_175_ ::var_is_introduced :: is_defined_var;
var bool: X_INTRODUCED_176_ ::var_is_introduced :: is_defined_var;
var bool: X_INTRODUCED_177_ ::var_is_introduced :: is_defined_var;
var bool: X_INTRODUCED_178_ ::var_is_introduced :: is_defined_var;
var bool: X_INTRODUCED_179_ ::var_is_introduced :: is_defined_var;
var bool: X_INTRODUCED_180_ ::var_is_introduced :: is_defined_var;
var bool: X_INTRODUCED_181_ ::var_is_introduced :: is_defined_var;
var bool: X_INTRODUCED_182_ ::var_is_introduced :: is_defined_var;
var bool: X_INTRODUCED_183_ ::var_is_introduced :: is_defined_var;
var bool: X_INTRODUCED_184_ ::var_is_introduced :: is_defined_var;
var bool: X_INTRODUCED_185_ ::var_is_introduced :: is_defined_var;
var bool: X_INTRODUCED_186_ ::var_is_introduced :: is_defined_var;
var bool: X_INTRODUCED_187_ ::var_is_introduced :: is_defined_var;
var bool: X_INTRODUCED_188_ ::var_is_introduced :: is_defined_var;
var bool: X_INTRODUCED_189_ ::var_is_introduced :: is_defined_var;
var bool: X_INTRODUCED_190_ ::var_is_introduced :: is_defined_var;
var bool: X_INTRODUCED_191_ ::var_is_introduced :: is_defined_var;
var bool: X_INTRODUCED_192_ ::var_is_introduced :: is_defined_var;
var bool: X_INTRODUCED_193_ ::var_is_introduced :: is_defined_var;
var bool: X_INTRODUCED_194_ ::var_is_introduced :: is_defined_var;
var bool: X_INTRODUCED_195_ ::var_is_introduced :: is_defined_var;
var bool: X_INTRODUCED_196_ ::var_is_introduced :: is_defined_var;
var bool: X_INTRODUCED_197_ ::var_is_introduced :: is_defined_var;
var bool: X_INTRODUCED_198_ ::var_is_introduced :: is_defined_var;
var bool: X_INTRODUCED_199_ ::var_is_introduced :: is_defined_var;
var bool: X_INTRODUCED_200_ ::var_is_introduced :: is_defined_var;
var bool: X_INTRODUCED_201_ ::var_is_introduced :: is_defined_var;
var bool: X_INTRODUCED_202_ ::var_is_introduced :: is_defined_var;
var bool: X_INTRODUCED_203_ ::var_is_introduced :: is_defined_var;
var bool: X_INTRODUCED_204_ ::var_is_introduced :: is_defined_var;
var bool: X_INTRODUCED_205_ ::var_is_introduced :: is_defined_var;
var bool: X_INTRODUCED_206_ ::var_is_introduced :: is_defined_var;
var bool: X_INTRODUCED_207_ ::var_is_introduced :: is_defined_var;
var bool: X_INTRODUCED_208_ ::var_is_introduced :: is_defined_var;
var bool: X_INTRODUCED_209_ ::var_is_introduced :: is_defined_var;
var bool: X_INTRODUCED_210_ ::var_is_introduced :: is_defined_var;
var bool: X_INTRODUCED_211_ ::var_is_introduced :: is_defined_var;
var bool: X_INTRODUCED_212_ ::var_is_introduced :: is_defined_var;
var bool: X_INTRODUCED_213_ ::var_is_introduced :: is_defined_var;
var bool: X_INTRODUCED_214_ ::var_is_introduced :: is_defined_var;
var bool: X_INTRODUCED_215_ ::var_is_introduced :: is_defined_var;
var bool: X_INTRODUCED_216_ ::var_is_introduced :: is_defined_var;
var bool: X_INTRODUCED_217_ ::var_is_introduced :: is_defined_var;
var bool: X_INTRODUCED_218_ ::var_is_introduced :: is_defined_var;
var bool: X_INTRODUCED_219_ ::var_is_introduced :: is_defined_var;
array [1..60] of var int: s:: output_array([1..60]) = [X_INTRODUCED_16_,X_INTRODUCED_17_,X_INTRODUCED_18_,X_INTRODUCED_19_,X_INTRODUCED_20_,X_INTRODUCED_21_,X_INTRODUCED_22_,X_INTRODUCED_23_,X_INTRODUCED_24_,X_INTRODUCED_25_,X_INTRODUCED_26_,X_INTRODUCED_27_,X_INTRODUCED_28_,X_INTRODUCED_29_,X_INTRODUCED_30_,X_INTRODUCED_31_,X_INTRODUCED_32_,X_INTRODUCED_33_,X_INTRODUCED_34_,X_INTRODUCED_35_,X_INTRODUCED_36_,X_INTRODUCED_37_,X_INTRODUCED_38_,X_INTRODUCED_39_,X_INTRODUCED_40_,X_INTRODUCED_41_,X_INTRODUCED_42_,X_INTRODUCED_43_,X_INTRODUCED_44_,X_INTRODUCED_45_,X_INTRODUCED_46_,X_INTRODUCED_47_,X_INTRODUCED_48_,X_INTRODUCED_49_,X_INTRODUCED_50_,X_INTRODUCED_51_,X_INTRODUCED_52_,X_INTRODUCED_53_,X_INTRODUCED_54_,X_INTRODUCED_55_,X_INTRODUCED_56_,X_INTRODUCED_57_,X_INTRODUCED_58_,X_INTRODUCED_59_,X_INTRODUCED_60_,X_INTRODUCED_61_,X_INTRODUCED_62_,X_INTRODUCED_63_,X_INTRODUCED_64_,X_INTRODUCED_65_,X_INTRODUCED_66_,X_INTRODUCED_67_,X_INTRODUCED_68_,X_INTRODUCED_69_,X_INTRODUCED_70_,X_INTRODUCED_71_,X_INTRODUCED_72_,X_INTRODUCED_73_,X_INTRODUCED_74_,X_INTRODUCED_75_];
array [1..17] of var int: X_INTRODUCED_222_ ::var_is_introduced  = [X_INTRODUCED_16_,X_INTRODUCED_18_,X_INTRODUCED_19_,X_INTRODUCED_27_,X_INTRODUCED_38_,X_INTRODUCED_43_,X_INTRODUCED_46_,X_INTRODUCED_50_,X_INTRODUCED_51_,X_INTRODUCED_52_,X_INTRODUCED_54_,X_INTRODUCED_55_,X_INTRODUCED_61_,X_INTRODUCED_66_,X_INTRODUCED_67_,X_INTRODUCED_70_,X_INTRODUCED_74_];
array [1..12] of var int: X_INTRODUCED_225_ ::var_is_introduced  = [X_INTRODUCED_24_,X_INTRODUCED_30_,X_INTRODUCED_31_,X_INTRODUCED_34_,X_INTRODUCED_36_,X_INTRODUCED_39_,X_INTRODUCED_47_,X_INTRODUCED_48_,X_INTRODUCED_60_,X_INTRODUCED_63_,X_INTRODUCED_65_,X_INTRODUCED_75_];
array [1..16] of var int: X_INTRODUCED_228_ ::var_is_introduced  = [X_INTRODUCED_17_,X_INTRODUCED_20_,X_INTRODUCED_21_,X_INTRODUCED_22_,X_INTRODUCED_23_,X_INTRODUCED_25_,X_INTRODUCED_26_,X_INTRODUCED_33_,X_INTRODUCED_35_,X_INTRODUCED_37_,X_INTRODUCED_40_,X_INTRODUCED_42_,X_INTRODUCED_56_,X_INTRODUCED_68_,X_INTRODUCED_69_,X_INTRODUCED_73_];
array [1..15] of var int: X_INTRODUCED_231_ ::var_is_introduced  = [X_INTRODUCED_28_,X_INTRODUCED_29_,X_INTRODUCED_32_,X_INTRODUCED_41_,X_INTRODUCED_44_,X_INTRODUCED_45_,X_INTRODUCED_49_,X_INTRODUCED_53_,X_INTRODUCED_57_,X_INTRODUCED_58_,X_INTRODUCED_59_,X_INTRODUCED_62_,X_INTRODUCED_64_,X_INTRODUCED_71_,X_INTRODUCED_72_];
constraint int_lin_le(X_INTRODUCED_78_,[X_INTRODUCED_16_,X_INTRODUCED_19_],-6);
constraint int_lin_le(X_INTRODUCED_78_,[X_INTRODUCED_16_,X_INTRODUCED_24_],-6);
constraint int_lin_le(X_INTRODUCED_78_,[X_INTRODUCED_16_,X_INTRODUCED_34_],-6);
constraint int_lin_le(X_INTRODUCED_78_,[X_INTRODUCED_17_,X_INTRODUCED_21_],-2);
constraint int_lin_le(X_INTRODUCED_78_,[X_INTRODUCED_17_,X_INTRODUCED_22_],-2);
constraint int_lin_le(X_INTRODUCED_78_,[X_INTRODUCED_17_,X_INTRODUCED_23_],-2);
constraint int_lin_le(X_INTRODUCED_78_,[X_INTRODUCED_18_,X_INTRODUCED_20_],-3);
constraint int_lin_le(X_INTRODUCED_78_,[X_INTRODUCED_18_,X_INTRODUCED_32_],-3);
constraint int_lin_le(X_INTRODUCED_78_,[X_INTRODUCED_18_,X_INTRODUCED_37_],-3);
constraint int_lin_le(X_INTRODUCED_78_,[X_INTRODUCED_19_,X_INTRODUCED_31_],-1);
constraint int_lin_le(X_INTRODUCED_78_,[X_INTRODUCED_19_,X_INTRODUCED_38_],-1);
constraint int_lin_le(X_INTRODUCED_78_,[X_INTRODUCED_19_,X_INTRODUCED_47_],-1);
constraint int_lin_le(X_INTRODUCED_78_,[X_INTRODUCED_20_,X_INTRODUCED_25_],-10);
constraint int_lin_le(X_INTRODUCED_78_,[X_INTRODUCED_20_,X_INTRODUCED_42_],-10);
constraint int_lin_le(X_INTRODUCED_78_,[X_INTRODUCED_21_,X_INTRODUCED_40_],-8);
constraint int_lin_le(X_INTRODUCED_78_,[X_INTRODUCED_21_,X_INTRODUCED_53_],-8);
constraint int_lin_le(X_INTRODUCED_78_,[X_INTRODUCED_21_,X_INTRODUCED_55_],-8);
constraint int_lin_le(X_INTRODUCED_78_,[X_INTRODUCED_22_,X_INTRODUCED_29_],-10);
constraint int_lin_le(X_INTRODUCED_78_,[X_INTRODUCED_22_,X_INTRODUCED_32_],-10);
constraint int_lin_le(X_INTRODUCED_78_,[X_INTRODUCED_22_,X_INTRODUCED_70_],-10);
constraint int_lin_le(X_INTRODUCED_78_,[X_INTRODUCED_23_,X_INTRODUCED_30_],-8);
constraint int_lin_le(X_INTRODUCED_78_,[X_INTRODUCED_23_,X_INTRODUCED_54_],-8);
constraint int_lin_le(X_INTRODUCED_78_,[X_INTRODUCED_23_,X_INTRODUCED_55_],-8);
constraint int_lin_le(X_INTRODUCED_78_,[X_INTRODUCED_24_,X_INTRODUCED_45_],-8);
constraint int_lin_le(X_INTRODUCED_78_,[X_INTRODUCED_25_,X_INTRODUCED_26_],-5);
constraint int_lin_le(X_INTRODUCED_78_,[X_INTRODUCED_25_,X_INTRODUCED_27_],-5);
constraint int_lin_le(X_INTRODUCED_78_,[X_INTRODUCED_25_,X_INTRODUCED_33_],-5);
constraint int_lin_le(X_INTRODUCED_78_,[X_INTRODUCED_26_,X_INTRODUCED_28_],-4);
constraint int_lin_le(X_INTRODUCED_78_,[X_INTRODUCED_26_,X_INTRODUCED_46_],-4);
constraint int_lin_le(X_INTRODUCED_78_,[X_INTRODUCED_26_,X_INTRODUCED_51_],-4);
constraint int_lin_le(X_INTRODUCED_78_,[X_INTRODUCED_27_,X_INTRODUCED_36_],-7);
constraint int_lin_le(X_INTRODUCED_78_,[X_INTRODUCED_28_,X_INTRODUCED_58_],-9);
constraint int_lin_le(X_INTRODUCED_78_,[X_INTRODUCED_28_,X_INTRODUCED_62_],-9);
constraint int_lin_le(X_INTRODUCED_78_,[X_INTRODUCED_28_,X_INTRODUCED_63_],-9);
constraint int_lin_le(X_INTRODUCED_78_,[X_INTRODUCED_29_,X_INTRODUCED_38_],-8);
constraint int_lin_le(X_INTRODUCED_78_,[X_INTRODUCED_29_,X_INTRODUCED_47_],-8);
constraint int_lin_le(X_INTRODUCED_78_,[X_INTRODUCED_29_,X_INTRODUCED_51_],-8);
constraint int_lin_le(X_INTRODUCED_78_,[X_INTRODUCED_30_,X_INTRODUCED_56_],-7);
constraint int_lin_le(X_INTRODUCED_78_,[X_INTRODUCED_31_,X_INTRODUCED_41_],-3);
constraint int_lin_le(X_INTRODUCED_78_,[X_INTRODUCED_31_,X_INTRODUCED_73_],-3);
constraint int_lin_le(X_INTRODUCED_78_,[X_INTRODUCED_32_,X_INTRODUCED_48_],-5);
constraint int_lin_le(X_INTRODUCED_78_,[X_INTRODUCED_32_,X_INTRODUCED_71_],-5);
constraint int_lin_le(X_INTRODUCED_78_,[X_INTRODUCED_33_,X_INTRODUCED_35_],-1);
constraint int_lin_le(X_INTRODUCED_78_,[X_INTRODUCED_33_,X_INTRODUCED_43_],-1);
constraint int_lin_le(X_INTRODUCED_78_,[X_INTRODUCED_33_,X_INTRODUCED_65_],-1);
constraint int_lin_le(X_INTRODUCED_78_,[X_INTRODUCED_34_,X_INTRODUCED_39_],-1);
constraint int_lin_le(X_INTRODUCED_78_,[X_INTRODUCED_34_,X_INTRODUCED_53_],-1);
constraint int_lin_le(X_INTRODUCED_78_,[X_INTRODUCED_35_,X_INTRODUCED_55_],-7);
constraint int_lin_le(X_INTRODUCED_78_,[X_INTRODUCED_35_,X_INTRODUCED_57_],-7);
constraint int_lin_le(X_INTRODUCED_78_,[X_INTRODUCED_36_,X_INTRODUCED_40_],-7);
constraint int_lin_le(X_INTRODUCED_78_,[X_INTRODUCED_36_,X_INTRODUCED_44_],-7);
constraint int_lin_le(X_INTRODUCED_78_,[X_INTRODUCED_37_,X_INTRODUCED_51_],-9);
constraint int_lin_le(X_INTRODUCED_78_,[X_INTRODUCED_37_,X_INTRODUCED_67_],-9);
constraint int_lin_le(X_INTRODUCED_78_,[X_INTRODUCED_38_,X_INTRODUCED_58_],-1);
constraint int_lin_le(X_INTRODUCED_78_,[X_INTRODUCED_38_,X_INTRODUCED_59_],-1);
constraint int_lin_le(X_INTRODUCED_78_,[X_INTRODUCED_39_,X_INTRODUCED_45_],-1);
constraint int_lin_le(X_INTRODUCED_78_,[X_INTRODUCED_39_,X_INTRODUCED_47_],-1);
constraint int_lin_le(X_INTRODUCED_78_,[X_INTRODUCED_39_,X_INTRODUCED_52_],-1);
constraint int_lin_le(X_INTRODUCED_78_,[X_INTRODUCED_40_,X_INTRODUCED_48_],-3);
constraint int_lin_le(X_INTRODUCED_78_,[X_INTRODUCED_41_,X_INTRODUCED_67_],-5);
constraint int_lin_le(X_INTRODUCED_78_,[X_INTRODUCED_41_,X_INTRODUCED_69_],-5);
constraint int_lin_le(X_INTRODUCED_78_,[X_INTRODUCED_42_,X_INTRODUCED_44_],-1);
constraint int_lin_le(X_INTRODUCED_78_,[X_INTRODUCED_42_,X_INTRODUCED_53_],-1);
constraint int_lin_le(X_INTRODUCED_78_,[X_INTRODUCED_43_,X_INTRODUCED_58_],-2);
constraint int_lin_le(X_INTRODUCED_78_,[X_INTRODUCED_44_,X_INTRODUCED_46_],-9);
constraint int_lin_le(X_INTRODUCED_78_,[X_INTRODUCED_44_,X_INTRODUCED_63_],-9);
constraint int_lin_le(X_INTRODUCED_78_,[X_INTRODUCED_45_,X_INTRODUCED_46_],-8);
constraint int_lin_le(X_INTRODUCED_78_,[X_INTRODUCED_45_,X_INTRODUCED_57_],-8);
constraint int_lin_le(X_INTRODUCED_78_,[X_INTRODUCED_46_,X_INTRODUCED_48_],-3);
constraint int_lin_le(X_INTRODUCED_78_,[X_INTRODUCED_46_,X_INTRODUCED_65_],-3);
constraint int_lin_le(X_INTRODUCED_78_,[X_INTRODUCED_47_,X_INTRODUCED_49_],-6);
constraint int_lin_le(X_INTRODUCED_78_,[X_INTRODUCED_47_,X_INTRODUCED_50_],-6);
constraint int_lin_le(X_INTRODUCED_78_,[X_INTRODUCED_47_,X_INTRODUCED_74_],-6);
constraint int_lin_le(X_INTRODUCED_78_,[X_INTRODUCED_48_,X_INTRODUCED_69_],-2);
constraint int_lin_le(X_INTRODUCED_78_,[X_INTRODUCED_49_,X_INTRODUCED_60_],-10);
constraint int_lin_le(X_INTRODUCED_78_,[X_INTRODUCED_50_,X_INTRODUCED_68_],-3);
constraint int_lin_le(X_INTRODUCED_78_,[X_INTRODUCED_51_,X_INTRODUCED_52_],-9);
constraint int_lin_le(X_INTRODUCED_78_,[X_INTRODUCED_52_,X_INTRODUCED_72_],-4);
constraint int_lin_le(X_INTRODUCED_78_,[X_INTRODUCED_53_,X_INTRODUCED_57_],-5);
constraint int_lin_le(X_INTRODUCED_78_,[X_INTRODUCED_53_,X_INTRODUCED_75_],-5);
constraint int_lin_le(X_INTRODUCED_78_,[X_INTRODUCED_54_,X_INTRODUCED_66_],-4);
constraint int_lin_le(X_INTRODUCED_78_,[X_INTRODUCED_54_,X_INTRODUCED_69_],-4);
constraint int_lin_le(X_INTRODUCED_78_,[X_INTRODUCED_55_,X_INTRODUCED_63_],-8);
constraint int_lin_le(X_INTRODUCED_78_,[X_INTRODUCED_56_,X_INTRODUCED_59_],-9);
constraint int_lin_le(X_INTRODUCED_78_,[X_INTRODUCED_57_,X_INTRODUCED_60_],-1);
constraint int_lin_le(X_INTRODUCED_78_,[X_INTRODUCED_57_,X_INTRODUCED_62_],-1);
constraint int_lin_le(X_INTRODUCED_78_,[X_INTRODUCED_57_,X_INTRODUCED_70_],-1);
constraint int_lin_le(X_INTRODUCED_78_,[X_INTRODUCED_58_,X_INTRODUCED_71_],-7);
constraint int_lin_le(X_INTRODUCED_78_,[X_INTRODUCED_58_,X_INTRODUCED_72_],-7);
constraint int_lin_le(X_INTRODUCED_78_,[X_INTRODUCED_59_,X_INTRODUCED_65_],-8);
constraint int_lin_le(X_INTRODUCED_78_,[X_INTRODUCED_59_,X_INTRODUCED_68_],-8);
constraint int_lin_le(X_INTRODUCED_78_,[X_INTRODUCED_60_,X_INTRODUCED_61_],-4);
constraint int_lin_le(X_INTRODUCED_78_,[X_INTRODUCED_61_,X_INTRODUCED_64_],-4);
constraint int_lin_le(X_INTRODUCED_78_,[X_INTRODUCED_62_,X_INTRODUCED_73_],-3);
constraint int_lin_le(X_INTRODUCED_78_,[X_INTRODUCED_63_,X_INTRODUCED_66_],-7);
constraint int_lin_le(X_INTRODUCED_78_,[X_INTRODUCED_63_,X_INTRODUCED_67_],-7);
constraint int_lin_le(X_INTRODUCED_78_,[X_INTRODUCED_64_,X_INTRODUCED_73_],-1);
constraint int_lin_le(X_INTRODUCED_78_,[X_INTRODUCED_65_,X_INTRODUCED_66_],-9);
constraint int_lin_le(X_INTRODUCED_78_,[X_INTRODUCED_66_,X_INTRODUCED_75_],-10);
constraint int_lin_le(X_INTRODUCED_78_,[X_INTRODUCED_67_,X_INTRODUCED_68_],-10);
constraint int_lin_le(X_INTRODUCED_78_,[X_INTRODUCED_67_,X_INTRODUCED_70_],-10);
constraint int_lin_le(X_INTRODUCED_78_,[X_INTRODUCED_68_,X_INTRODUCED_71_],-5);
constraint int_lin_le(X_INTRODUCED_78_,[X_INTRODUCED_69_,X_INTRODUCED_74_],-9);
constraint int_lin_le(X_INTRODUCED_78_,[X_INTRODUCED_70_,X_INTRODUCED_72_],-8);
constraint int_lin_le(X_INTRODUCED_78_,[X_INTRODUCED_71_,X_INTRODUCED_75_],-8);
constraint int_lin_le(X_INTRODUCED_78_,[X_INTRODUCED_72_,X_INTRODUCED_74_],-2);
constraint bool_clause([X_INTRODUCED_135_,X_INTRODUCED_136_],[]);
constraint bool_clause([X_INTRODUCED_137_,X_INTRODUCED_138_],[]);
constraint bool_clause([X_INTRODUCED_139_,X_INTRODUCED_140_],[]);
constraint bool_clause([X_INTRODUCED_141_,X_INTRODUCED_142_],[]);
constraint bool_clause([X_INTRODUCED_143_,X_INTRODUCED_144_],[]);
constraint bool_clause([X_INTRODUCED_145_,X_INTRODUCED_146_],[]);
constraint bool_clause([X_INTRODUCED_147_,X_INTRODUCED_148_],[]);
constraint bool_clause([X_INTRODUCED_149_,X_INTRODUCED_151_],[]);
constraint bool_clause([X_INTRODUCED_152_,X_INTRODUCED_153_],[]);
constraint bool_clause([X_INTRODUCED_154_,X_INTRODUCED_155_],[]);
constraint bool_clause([X_INTRODUCED_156_,X_INTRODUCED_157_],[]);
constraint bool_clause([X_INTRODUCED_158_,X_INTRODUCED_159_],[]);
constraint bool_clause([X_INTRODUCED_160_,X_INTRODUCED_161_],[]);
constraint bool_clause([X_INTRODUCED_162_,X_INTRODUCED_163_],[]);
constraint bool_clause([X_INTRODUCED_164_,X_INTRODUCED_165_],[]);
constraint bool_clause([X_INTRODUCED_166_,X_INTRODUCED_167_],[]);
constraint bool_clause([X_INTRODUCED_168_,X_INTRODUCED_169_],[]);
constraint bool_clause([X_INTRODUCED_170_,X_INTRODUCED_171_],[]);
constraint bool_clause([X_INTRODUCED_172_,X_INTRODUCED_173_],[]);
constraint bool_clause([X_INTRODUCED_174_,X_INTRODUCED_175_],[]);
constraint bool_clause([X_INTRODUCED_176_,X_INTRODUCED_177_],[]);
constraint bool_clause([X_INTRODUCED_178_,X_INTRODUCED_179_],[]);
constraint bool_clause([X_INTRODUCED_180_,X_INTRODUCED_181_],[]);
constraint bool_clause([X_INTRODUCED_182_,X_INTRODUCED_183_],[]);
constraint bool_clause([X_INTRODUCED_184_,X_INTRODUCED_185_],[]);
constraint bool_clause([X_INTRODUCED_186_,X_INTRODUCED_187_],[]);
constraint bool_clause([X_INTRODUCED_188_,X_INTRODUCED_189_],[]);
constraint bool_clause([X_INTRODUCED_190_,X_INTRODUCED_191_],[]);
constraint bool_clause([X_INTRODUCED_192_,X_INTRODUCED_193_],[]);
constraint bool_clause([X_INTRODUCED_194_,X_INTRODUCED_195_],[]);
constraint bool_clause([X_INTRODUCED_196_,X_INTRODUCED_197_],[]);
constraint bool_clause([X_INTRODUCED_198_,X_INTRODUCED_199_],[]);
constraint bool_clause([X_INTRODUCED_200_,X_INTRODUCED_201_],[]);
constraint bool_clause([X_INTRODUCED_202_,X_INTRODUCED_203_],[]);
constraint bool_clause([X_INTRODUCED_204_,X_INTRODUCED_205_],[]);
constraint bool_clause([X_INTRODUCED_206_,X_INTRODUCED_207_],[]);
constraint bool_clause([X_INTRODUCED_208_,X_INTRODUCED_209_],[]);
constraint bool_clause([X_INTRODUCED_210_,X_INTRODUCED_211_],[]);
constraint bool_clause([X_INTRODUCED_212_,X_INTRODUCED_213_],[]);
constraint bool_clause([X_INTRODUCED_214_,X_INTRODUCED_215_],[]);
constraint bool_clause([X_INTRODUCED_216_,X_INTRODUCED_217_],[]);
constraint bool_clause([X_INTRODUCED_218_,X_INTRODUCED_219_],[]);
constraint minicpp_cumulative(X_INTRODUCED_222_,X_INTRODUCED_221_,X_INTRODUCED_220_,13);
constraint minicpp_cumulative(X_INTRODUCED_225_,X_INTRODUCED_224_,X_INTRODUCED_223_,15);
constraint minicpp_cumulative(X_INTRODUCED_228_,X_INTRODUCED_227_,X_INTRODUCED_226_,19);
constraint minicpp_cumulative(X_INTRODUCED_231_,X_INTRODUCED_230_,X_INTRODUCED_229_,18);
constraint int_lin_le_imp(X_INTRODUCED_78_,[X_INTRODUCED_17_,X_INTRODUCED_25_],-2,X_INTRODUCED_135_):: defines_var(X_INTRODUCED_135_);
constraint int_lin_le_imp(X_INTRODUCED_78_,[X_INTRODUCED_25_,X_INTRODUCED_17_],-5,X_INTRODUCED_136_):: defines_var(X_INTRODUCED_136_);
constraint int_lin_le_imp(X_INTRODUCED_78_,[X_INTRODUCED_18_,X_INTRODUCED_43_],-3,X_INTRODUCED_137_):: defines_var(X_INTRODUCED_137_);
constraint int_lin_le_imp(X_INTRODUCED_78_,[X_INTRODUCED_43_,X_INTRODUCED_18_],-2,X_INTRODUCED_138_):: defines_var(X_INTRODUCED_138_);
constraint int_lin_le_imp(X_INTRODUCED_78_,[X_INTRODUCED_18_,X_INTRODUCED_46_],-3,X_INTRODUCED_139_):: defines_var(X_INTRODUCED_139_);
constraint int_lin_le_imp(X_INTRODUCED_78_,[X_INTRODUCED_46_,X_INTRODUCED_18_],-3,X_INTRODUCED_140_):: defines_var(X_INTRODUCED_140_);
constraint int_lin_le_imp(X_INTRODUCED_78_,[X_INTRODUCED_18_,X_INTRODUCED_54_],-3,X_INTRODUCED_141_):: defines_var(X_INTRODUCED_141_);
constraint int_lin_le_imp(X_INTRODUCED_78_,[X_INTRODUCED_54_,X_INTRODUCED_18_],-4,X_INTRODUCED_142_):: defines_var(X_INTRODUCED_142_);
constraint int_lin_le_imp(X_INTRODUCED_78_,[X_INTRODUCED_18_,X_INTRODUCED_61_],-3,X_INTRODUCED_143_):: defines_var(X_INTRODUCED_143_);
constraint int_lin_le_imp(X_INTRODUCED_78_,[X_INTRODUCED_61_,X_INTRODUCED_18_],-4,X_INTRODUCED_144_):: defines_var(X_INTRODUCED_144_);
constraint int_lin_le_imp(X_INTRODUCED_78_,[X_INTRODUCED_18_,X_INTRODUCED_66_],-3,X_INTRODUCED_145_):: defines_var(X_INTRODUCED_145_);
constraint int_lin_le_imp(X_INTRODUCED_78_,[X_INTRODUCED_66_,X_INTRODUCED_18_],-10,X_INTRODUCED_146_):: defines_var(X_INTRODUCED_146_);
constraint int_lin_le_imp(X_INTRODUCED_78_,[X_INTRODUCED_18_,X_INTRODUCED_67_],-3,X_INTRODUCED_147_):: defines_var(X_INTRODUCED_147_);
constraint int_lin_le_imp(X_INTRODUCED_78_,[X_INTRODUCED_67_,X_INTRODUCED_18_],-10,X_INTRODUCED_148_):: defines_var(X_INTRODUCED_148_);
constraint int_lin_le_imp(X_INTRODUCED_78_,[X_INTRODUCED_18_,X_INTRODUCED_74_],-3,X_INTRODUCED_149_):: defines_var(X_INTRODUCED_149_);
constraint int_lin_le_imp(X_INTRODUCED_78_,[X_INTRODUCED_74_,X_INTRODUCED_18_],-3,X_INTRODUCED_151_):: defines_var(X_INTRODUCED_151_);
constraint int_lin_le_imp(X_INTRODUCED_78_,[X_INTRODUCED_19_,X_INTRODUCED_43_],-1,X_INTRODUCED_152_):: defines_var(X_INTRODUCED_152_);
constraint int_lin_le_imp(X_INTRODUCED_78_,[X_INTRODUCED_43_,X_INTRODUCED_19_],-2,X_INTRODUCED_153_):: defines_var(X_INTRODUCED_153_);
constraint int_lin_le_imp(X_INTRODUCED_78_,[X_INTRODUCED_19_,X_INTRODUCED_54_],-1,X_INTRODUCED_154_):: defines_var(X_INTRODUCED_154_);
constraint int_lin_le_imp(X_INTRODUCED_78_,[X_INTRODUCED_54_,X_INTRODUCED_19_],-4,X_INTRODUCED_155_):: defines_var(X_INTRODUCED_155_);
constraint int_lin_le_imp(X_INTRODUCED_78_,[X_INTRODUCED_19_,X_INTRODUCED_66_],-1,X_INTRODUCED_156_):: defines_var(X_INTRODUCED_156_);
constraint int_lin_le_imp(X_INTRODUCED_78_,[X_INTRODUCED_66_,X_INTRODUCED_19_],-10,X_INTRODUCED_157_):: defines_var(X_INTRODUCED_157_);
constraint int_lin_le_imp(X_INTRODUCED_78_,[X_INTRODUCED_19_,X_INTRODUCED_74_],-1,X_INTRODUCED_158_):: defines_var(X_INTRODUCED_158_);
constraint int_lin_le_imp(X_INTRODUCED_78_,[X_INTRODUCED_74_,X_INTRODUCED_19_],-3,X_INTRODUCED_159_):: defines_var(X_INTRODUCED_159_);
constraint int_lin_le_imp(X_INTRODUCED_78_,[X_INTRODUCED_21_,X_INTRODUCED_25_],-8,X_INTRODUCED_160_):: defines_var(X_INTRODUCED_160_);
constraint int_lin_le_imp(X_INTRODUCED_78_,[X_INTRODUCED_25_,X_INTRODUCED_21_],-5,X_INTRODUCED_161_):: defines_var(X_INTRODUCED_161_);
constraint int_lin_le_imp(X_INTRODUCED_78_,[X_INTRODUCED_31_,X_INTRODUCED_65_],-3,X_INTRODUCED_162_):: defines_var(X_INTRODUCED_162_);
constraint int_lin_le_imp(X_INTRODUCED_78_,[X_INTRODUCED_65_,X_INTRODUCED_31_],-9,X_INTRODUCED_163_):: defines_var(X_INTRODUCED_163_);
constraint int_lin_le_imp(X_INTRODUCED_78_,[X_INTRODUCED_39_,X_INTRODUCED_48_],-1,X_INTRODUCED_164_):: defines_var(X_INTRODUCED_164_);
constraint int_lin_le_imp(X_INTRODUCED_78_,[X_INTRODUCED_48_,X_INTRODUCED_39_],-2,X_INTRODUCED_165_):: defines_var(X_INTRODUCED_165_);
constraint int_lin_le_imp(X_INTRODUCED_78_,[X_INTRODUCED_39_,X_INTRODUCED_65_],-1,X_INTRODUCED_166_):: defines_var(X_INTRODUCED_166_);
constraint int_lin_le_imp(X_INTRODUCED_78_,[X_INTRODUCED_65_,X_INTRODUCED_39_],-9,X_INTRODUCED_167_):: defines_var(X_INTRODUCED_167_);
constraint int_lin_le_imp(X_INTRODUCED_78_,[X_INTRODUCED_43_,X_INTRODUCED_46_],-2,X_INTRODUCED_168_):: defines_var(X_INTRODUCED_168_);
constraint int_lin_le_imp(X_INTRODUCED_78_,[X_INTRODUCED_46_,X_INTRODUCED_43_],-3,X_INTRODUCED_169_):: defines_var(X_INTRODUCED_169_);
constraint int_lin_le_imp(X_INTRODUCED_78_,[X_INTRODUCED_43_,X_INTRODUCED_54_],-2,X_INTRODUCED_170_):: defines_var(X_INTRODUCED_170_);
constraint int_lin_le_imp(X_INTRODUCED_78_,[X_INTRODUCED_54_,X_INTRODUCED_43_],-4,X_INTRODUCED_171_):: defines_var(X_INTRODUCED_171_);
constraint int_lin_le_imp(X_INTRODUCED_78_,[X_INTRODUCED_43_,X_INTRODUCED_61_],-2,X_INTRODUCED_172_):: defines_var(X_INTRODUCED_172_);
constraint int_lin_le_imp(X_INTRODUCED_78_,[X_INTRODUCED_61_,X_INTRODUCED_43_],-4,X_INTRODUCED_173_):: defines_var(X_INTRODUCED_173_);
constraint int_lin_le_imp(X_INTRODUCED_78_,[X_INTRODUCED_43_,X_INTRODUCED_66_],-2,X_INTRODUCED_174_):: defines_var(X_INTRODUCED_174_);
constraint int_lin_le_imp(X_INTRODUCED_78_,[X_INTRODUCED_66_,X_INTRODUCED_43_],-10,X_INTRODUCED_175_):: defines_var(X_INTRODUCED_175_);
constraint int_lin_le_imp(X_INTRODUCED_78_,[X_INTRODUCED_43_,X_INTRODUCED_67_],-2,X_INTRODUCED_176_):: defines_var(X_INTRODUCED_176_);
constraint int_lin_le_imp(X_INTRODUCED_78_,[X_INTRODUCED_67_,X_INTRODUCED_43_],-10,X_INTRODUCED_177_):: defines_var(X_INTRODUCED_177_);
constraint int_lin_le_imp(X_INTRODUCED_78_,[X_INTRODUCED_43_,X_INTRODUCED_70_],-2,X_INTRODUCED_178_):: defines_var(X_INTRODUCED_178_);
constraint int_lin_le_imp(X_INTRODUCED_78_,[X_INTRODUCED_70_,X_INTRODUCED_43_],-8,X_INTRODUCED_179_):: defines_var(X_INTRODUCED_179_);
constraint int_lin_le_imp(X_INTRODUCED_78_,[X_INTRODUCED_43_,X_INTRODUCED_74_],-2,X_INTRODUCED_180_):: defines_var(X_INTRODUCED_180_);
constraint int_lin_le_imp(X_INTRODUCED_78_,[X_INTRODUCED_74_,X_INTRODUCED_43_],-3,X_INTRODUCED_181_):: defines_var(X_INTRODUCED_181_);
constraint int_lin_le_imp(X_INTRODUCED_78_,[X_INTRODUCED_46_,X_INTRODUCED_54_],-3,X_INTRODUCED_182_):: defines_var(X_INTRODUCED_182_);
constraint int_lin_le_imp(X_INTRODUCED_78_,[X_INTRODUCED_54_,X_INTRODUCED_46_],-4,X_INTRODUCED_183_):: defines_var(X_INTRODUCED_183_);
constraint int_lin_le_imp(X_INTRODUCED_78_,[X_INTRODUCED_46_,X_INTRODUCED_61_],-3,X_INTRODUCED_184_):: defines_var(X_INTRODUCED_184_);
constraint int_lin_le_imp(X_INTRODUCED_78_,[X_INTRODUCED_61_,X_INTRODUCED_46_],-4,X_INTRODUCED_185_):: defines_var(X_INTRODUCED_185_);
constraint int_lin_le_imp(X_INTRODUCED_78_,[X_INTRODUCED_46_,X_INTRODUCED_66_],-3,X_INTRODUCED_186_):: defines_var(X_INTRODUCED_186_);
constraint int_lin_le_imp(X_INTRODUCED_78_,[X_INTRODUCED_66_,X_INTRODUCED_46_],-10,X_INTRODUCED_187_):: defines_var(X_INTRODUCED_187_);
constraint int_lin_le_imp(X_INTRODUCED_78_,[X_INTRODUCED_46_,X_INTRODUCED_67_],-3,X_INTRODUCED_188_):: defines_var(X_INTRODUCED_188_);
constraint int_lin_le_imp(X_INTRODUCED_78_,[X_INTRODUCED_67_,X_INTRODUCED_46_],-10,X_INTRODUCED_189_):: defines_var(X_INTRODUCED_189_);
constraint int_lin_le_imp(X_INTRODUCED_78_,[X_INTRODUCED_46_,X_INTRODUCED_74_],-3,X_INTRODUCED_190_):: defines_var(X_INTRODUCED_190_);
constraint int_lin_le_imp(X_INTRODUCED_78_,[X_INTRODUCED_74_,X_INTRODUCED_46_],-3,X_INTRODUCED_191_):: defines_var(X_INTRODUCED_191_);
constraint int_lin_le_imp(X_INTRODUCED_78_,[X_INTRODUCED_48_,X_INTRODUCED_65_],-2,X_INTRODUCED_192_):: defines_var(X_INTRODUCED_192_);
constraint int_lin_le_imp(X_INTRODUCED_78_,[X_INTRODUCED_65_,X_INTRODUCED_48_],-9,X_INTRODUCED_193_):: defines_var(X_INTRODUCED_193_);
constraint int_lin_le_imp(X_INTRODUCED_78_,[X_INTRODUCED_54_,X_INTRODUCED_61_],-4,X_INTRODUCED_194_):: defines_var(X_INTRODUCED_194_);
constraint int_lin_le_imp(X_INTRODUCED_78_,[X_INTRODUCED_61_,X_INTRODUCED_54_],-4,X_INTRODUCED_195_):: defines_var(X_INTRODUCED_195_);
constraint int_lin_le_imp(X_INTRODUCED_78_,[X_INTRODUCED_54_,X_INTRODUCED_67_],-4,X_INTRODUCED_196_):: defines_var(X_INTRODUCED_196_);
constraint int_lin_le_imp(X_INTRODUCED_78_,[X_INTRODUCED_67_,X_INTRODUCED_54_],-10,X_INTRODUCED_197_):: defines_var(X_INTRODUCED_197_);
constraint int_lin_le_imp(X_INTRODUCED_78_,[X_INTRODUCED_54_,X_INTRODUCED_70_],-4,X_INTRODUCED_198_):: defines_var(X_INTRODUCED_198_);
constraint int_lin_le_imp(X_INTRODUCED_78_,[X_INTRODUCED_70_,X_INTRODUCED_54_],-8,X_INTRODUCED_199_):: defines_var(X_INTRODUCED_199_);
constraint int_lin_le_imp(X_INTRODUCED_78_,[X_INTRODUCED_54_,X_INTRODUCED_74_],-4,X_INTRODUCED_200_):: defines_var(X_INTRODUCED_200_);
constraint int_lin_le_imp(X_INTRODUCED_78_,[X_INTRODUCED_74_,X_INTRODUCED_54_],-3,X_INTRODUCED_201_):: defines_var(X_INTRODUCED_201_);
constraint int_lin_le_imp(X_INTRODUCED_78_,[X_INTRODUCED_59_,X_INTRODUCED_71_],-8,X_INTRODUCED_202_):: defines_var(X_INTRODUCED_202_);
constraint int_lin_le_imp(X_INTRODUCED_78_,[X_INTRODUCED_71_,X_INTRODUCED_59_],-8,X_INTRODUCED_203_):: defines_var(X_INTRODUCED_203_);
constraint int_lin_le_imp(X_INTRODUCED_78_,[X_INTRODUCED_61_,X_INTRODUCED_66_],-4,X_INTRODUCED_204_):: defines_var(X_INTRODUCED_204_);
constraint int_lin_le_imp(X_INTRODUCED_78_,[X_INTRODUCED_66_,X_INTRODUCED_61_],-10,X_INTRODUCED_205_):: defines_var(X_INTRODUCED_205_);
constraint int_lin_le_imp(X_INTRODUCED_78_,[X_INTRODUCED_61_,X_INTRODUCED_67_],-4,X_INTRODUCED_206_):: defines_var(X_INTRODUCED_206_);
constraint int_lin_le_imp(X_INTRODUCED_78_,[X_INTRODUCED_67_,X_INTRODUCED_61_],-10,X_INTRODUCED_207_):: defines_var(X_INTRODUCED_207_);
constraint int_lin_le_imp(X_INTRODUCED_78_,[X_INTRODUCED_61_,X_INTRODUCED_74_],-4,X_INTRODUCED_208_):: defines_var(X_INTRODUCED_208_);
constraint int_lin_le_imp(X_INTRODUCED_78_,[X_INTRODUCED_74_,X_INTRODUCED_61_],-3,X_INTRODUCED_209_):: defines_var(X_INTRODUCED_209_);
constraint int_lin_le_imp(X_INTRODUCED_78_,[X_INTRODUCED_66_,X_INTRODUCED_67_],-10,X_INTRODUCED_210_):: defines_var(X_INTRODUCED_210_);
constraint int_lin_le_imp(X_INTRODUCED_78_,[X_INTRODUCED_67_,X_INTRODUCED_66_],-10,X_INTRODUCED_211_):: defines_var(X_INTRODUCED_211_);
constraint int_lin_le_imp(X_INTRODUCED_78_,[X_INTRODUCED_66_,X_INTRODUCED_70_],-10,X_INTRODUCED_212_):: defines_var(X_INTRODUCED_212_);
constraint int_lin_le_imp(X_INTRODUCED_78_,[X_INTRODUCED_70_,X_INTRODUCED_66_],-8,X_INTRODUCED_213_):: defines_var(X_INTRODUCED_213_);
constraint int_lin_le_imp(X_INTRODUCED_78_,[X_INTRODUCED_66_,X_INTRODUCED_74_],-10,X_INTRODUCED_214_):: defines_var(X_INTRODUCED_214_);
constraint int_lin_le_imp(X_INTRODUCED_78_,[X_INTRODUCED_74_,X_INTRODUCED_66_],-3,X_INTRODUCED_215_):: defines_var(X_INTRODUCED_215_);
constraint int_lin_le_imp(X_INTRODUCED_78_,[X_INTRODUCED_67_,X_INTRODUCED_74_],-10,X_INTRODUCED_216_):: defines_var(X_INTRODUCED_216_);
constraint int_lin_le_imp(X_INTRODUCED_78_,[X_INTRODUCED_74_,X_INTRODUCED_67_],-3,X_INTRODUCED_217_):: defines_var(X_INTRODUCED_217_);
constraint int_lin_le_imp(X_INTRODUCED_78_,[X_INTRODUCED_70_,X_INTRODUCED_74_],-8,X_INTRODUCED_218_):: defines_var(X_INTRODUCED_218_);
constraint int_lin_le_imp(X_INTRODUCED_78_,[X_INTRODUCED_74_,X_INTRODUCED_70_],-3,X_INTRODUCED_219_):: defines_var(X_INTRODUCED_219_);
solve :: int_search(s,smallest,indomain_min,complete) satisfy;
